words_hard_train/9444.qaiger
aag 37 15 0 1 22
2
4
8
12
14
18
24
26
32
36
40
44
48
60
66
74
6 3 5
10 6 8
16 13 15
20 16 19
22 10 20
28 25 27
30 22 28
34 32 5
38 37 27
42 39 40
46 17 44
50 49 15
52 46 51
54 53 28
56 42 55
58 57 3
62 59 60
64 63 19
68 65 66
70 34 69
72 71 9
74 31 73
i0 2 y1[4]
i1 2 y1[6]
i2 2 y1[7]
i3 2 y1[0]
i4 2 y1[1]
i5 2 y1[5]
i6 2 y1[2]
i7 2 y1[3]
i8 1 x2[7]
i9 1 x2[3]
i10 1 x2[4]
i11 1 x2[2]
i12 1 x2[1]
i13 1 x2[5]
i14 1 x2[6]
o0 bv[0]
c
simplified
  <
    or
      1 x2
      2 y1
    add
      invert
        2 y1
      1
