words_hard_train/9444.qaiger.qdimacs
p cnf 37 67
a 33 16 18 20 22 24 30 0
e 1 2 3 4 5 6 7 8 9 10 11 12 13 14 15 17 19 21 23 25 26 27 28 29 31 32 34 35 36 37 0
1 2 3 0
-1 -3 0
-2 -3 0
-3 -4 5 0
3 -5 0
4 -5 0
6 7 8 0
-6 -8 0
-7 -8 0
-8 9 10 0
8 -10 0
-9 -10 0
-5 -10 11 0
5 -11 0
10 -11 0
12 13 14 0
-12 -14 0
-13 -14 0
-11 -14 15 0
11 -15 0
14 -15 0
-16 2 17 0
16 -17 0
-2 -17 0
18 13 19 0
-18 -19 0
-13 -19 0
19 -20 21 0
-19 -21 0
20 -21 0
8 -22 23 0
-8 -23 0
22 -23 0
24 7 25 0
-24 -25 0
-7 -25 0
-23 25 26 0
23 -26 0
-25 -26 0
26 -14 27 0
-26 -27 0
14 -27 0
-21 27 28 0
21 -28 0
-27 -28 0
28 1 29 0
-28 -29 0
-1 -29 0
29 -30 31 0
-29 -31 0
30 -31 0
31 9 32 0
-31 -32 0
-9 -32 0
32 -33 34 0
-32 -34 0
33 -34 0
-17 34 35 0
17 -35 0
-34 -35 0
35 4 36 0
-35 -36 0
-4 -36 0
15 36 37 0
-15 -37 0
-36 -37 0
37 0
